choki.dat
model_1.02
#	Number	of	stocks
1
#	Names	of	stocks
Chilean_hoki
#SelMatrix 
1 1 1 1 1 
1 1 1 2 1 
1 2 3 1 2 
#nregbyStock 
1 
#SrType 
2 
#AgeError 
0 
#Retro 
0 
#RecMatrix 
1 
#Steepness 
0.65 
0.2 
6 
#SigmaR 
0.8 
15 
-4 
#phase_Rzero 
2 
#Nyrs_sr 
19 
#Nyrs_sr_1 
2000 2001 2002 2003 2004 2005 2006 2007 2008 2009 2010 2011 2012 2013 2014 2015 2016 2017 2018 
#GrowMatrix 
1 
#Linf 
80.4 
0.1 
-4 
#K 
0.16 
0.1 
-4 
#Lo_len 
15.75 
0.1 
-4 
#Sigma_len 
0.09 
0.1 
-4 
#NMatrix 
1 
#N_Mort 
0.35 
0.05 
-4 
#npars_mage 
0 
#phase_Mage 
-5 
#Phase_Random_walk_M 
-4 
#Nyrs_Random_walk_M 
0 
#qMatrix 
0.75  0.001904538 
.2 12 
8 5 
#qpowMatrix 
1 1 
1.2 1.2 
-1 -1 
#RW_q_phases 
1 -1 
#RW_nyrs_q 
0 0 
#RW_q_yrs 
#RW_q_sigmas 
#q_agemin 
1 2 
#q_agemax 
10 10 
#junk 
0 
#n_proj_yrs 
20 
#F1_info 
#1 9 2 1 1 7 
# opt, nages, phase, curv, dome
1 6 7 1 1 5 
#F1_selchangeYear 
1997 1998 1999 2000 2001 
#F1_selchange 
0.5 0.5 0.5 0.5 0.5 
#F1_selbyage 
0.2 0.8 1 .81 .71 .1 .01 .01 .01 .01 .01 .01 .01 .01  
#
#F2_info 
1 10 3 1 25 33 
#F2_selchangeYear 
1988 1989 1990 1991 1992 1993 1994 1995 1996 1997 1998 1999 2000 2001 2002 2003 2004 2005 2006 2007 2008 2009 2010 2011 2012 2013 2014 2015 2016 2017 2018 2019 2020 
#F2_selchange 
0.4 0.4 0.4 0.4 0.4 0.4 0.4 0.4 0.4 0.4 0.4 0.4 0.4 0.4 0.4 0.4 0.4 0.4 0.4 0.4 0.4 0.4 0.4 0.4 0.4 0.4 0.4 0.4 0.4 0.4 0.4 0.4 0.4 
#F2_selbyage 
0.2 0.7 1 1 1 1 1 1 1 1 1 1 1 1 
#
#F3_info 
1 11  1 1 1 18 
#F3_selchangeYear 
2003 2004 2005 2006 2007 2008 2009 2010 2011 2012 2013 2014 2015 2016 2017 2018 2019 2020 
#F3_selchange 
0.7 0.7 0.7 0.7 0.7 0.7 0.7 0.7 0.7 0.7 0.7 0.7 0.7 0.7 0.7 0.7 0.7 0.7 
#F3_selbyage 
0.001 0.07 0.071 0.3 0.8 1 1 1 1 1 1 1 .81 .81 
#
#I1_info 
# opt, nages, phase, curv, dome, nchanges
1 10 4 25 1 0 
#I1_selchangeYear 
#2001	2002	2003	2004	2005	2007	2008	2009	2010	2011	2012	2013	2014	2015	2016	2017	2018	2019	2020	2021
#I1_selchange 
#I1_selbyage 
0.3 .8 1 1 1 1 1 1 1 1 1 1 1 1

#I2_info 
1 10 5 0.25 100 0 
#I2_selchangeYear 
#I2_selchange 
#I2_selbyage 
0.3 .8 1 1 1 1 1 1 1 1 1 1 1 1
#Pwtatage 
0.017427828	0.112957108	0.260126884	0.381030478	0.52713807	0.618245868	0.867841051	1.24185669	1.577562313	1.781237173	2.059689669	2.164092893	2.422155917	2.64268179
#Pmatatage 
0.004728414	0.038396556	0.185770929	0.487313767	0.753533923	0.888357983	0.945690486	0.970642084	0.98242159	0.988492074	0.991878063	0.993898692	0.995174525	0.996018584
#test 
123456789 
